NAME : zqloutput/eax-hard-simple-rescaleandround/50-8.tsp
TYPE : TSP
DIMENSION : 50
EDGE_WEIGHT_TYPE : EUC_2D
NODE_COORD_SECTION
1 286352 288654
2 146024 447389
3 85462 575363
4 326062 683078
5 683575 629733
6 302285 939158
7 886463 612278
8 801749 912912
9 171791 224308
10 81073 708770
11 906166 157539
12 507170 354142
13 913172 138790
14 45895 707537
15 8355 408581
16 522291 973069
17 266649 859985
18 643882 688047
19 705875 726517
20 491654 438446
21 251803 8479
22 827910 165037
23 570125 741316
24 978527 832436
25 812214 153252
26 32489 800577
27 665998 290913
28 622941 963109
29 472260 970073
30 825007 325437
31 460897 252664
32 223254 528415
33 109227 434703
34 447158 316905
35 366629 824990
36 274251 630841
37 278157 180958
38 647851 113896
39 168154 465685
40 384356 124697
41 311186 104412
42 163885 277072
43 557512 52509
44 655599 708707
45 578467 304147
46 795656 11774
47 787378 100226
48 847704 371313
49 391875 208781
50 432979 104312
EOF
